p edge 23 134
e 2 1
e 4 1
e 4 2
e 4 3
e 5 3
e 5 4
e 6 1
e 6 2
e 6 4
e 7 2
e 7 5
e 7 6
e 8 3
e 8 5
e 9 1
e 9 2
e 9 3
e 9 4
e 9 5
e 9 6
e 9 7
e 9 8
e 10 1
e 10 2
e 10 4
e 10 6
e 11 2
e 11 3
e 11 4
e 11 5
e 11 8
e 12 3
e 12 4
e 12 7
e 12 8
e 12 9
e 12 10
e 12 11
e 13 2
e 13 4
e 13 6
e 13 7
e 13 9
e 13 10
e 13 12
e 14 3
e 14 5
e 14 8
e 14 12
e 15 3
e 15 4
e 15 7
e 15 9
e 15 11
e 15 13
e 16 3
e 16 4
e 16 6
e 16 9
e 16 10
e 16 11
e 16 12
e 17 1
e 17 5
e 17 6
e 17 8
e 17 9
e 17 12
e 17 14
e 17 16
e 18 1
e 18 2
e 18 4
e 18 7
e 18 8
e 18 12
e 18 13
e 18 15
e 19 1
e 19 2
e 19 4
e 19 6
e 19 10
e 19 11
e 19 18
e 20 1
e 20 2
e 20 3
e 20 5
e 20 7
e 20 8
e 20 10
e 20 11
e 20 12
e 20 13
e 20 14
e 20 15
e 20 16
e 20 17
e 20 19
e 21 1
e 21 4
e 21 5
e 21 6
e 21 7
e 21 8
e 21 9
e 21 11
e 21 14
e 21 15
e 21 17
e 21 18
e 21 19
e 21 20
e 22 7
e 22 8
e 22 9
e 22 10
e 22 12
e 22 15
e 22 16
e 22 17
e 22 20
e 23 2
e 23 3
e 23 4
e 23 5
e 23 8
e 23 12
e 23 16
e 23 17
e 23 19
e 23 20
e 23 21
